c Reduced graph for GEOM70 generated by Cyril Grelier
p edge 70 267
e 1 12
e 1 14
e 1 28
e 1 34
e 1 36
e 1 44
e 1 48
e 1 50
e 1 52
e 1 54
e 1 64
e 1 67
e 2 13
e 2 24
e 2 33
e 2 38
e 2 40
e 2 55
e 2 57
e 2 65
e 3 13
e 3 24
e 3 25
e 3 32
e 3 37
e 3 38
e 3 57
e 3 65
e 4 15
e 4 19
e 4 29
e 4 39
e 4 41
e 4 43
e 4 45
e 5 16
e 5 35
e 5 39
e 5 45
e 5 49
e 5 59
e 5 70
e 6 23
e 6 27
e 6 46
e 6 47
e 6 53
e 6 56
e 6 68
e 7 8
e 7 14
e 7 17
e 7 28
e 7 40
e 7 48
e 7 67
e 8 14
e 8 17
e 8 28
e 8 48
e 8 67
e 9 29
e 9 35
e 9 49
e 9 59
e 9 61
e 9 62
e 10 18
e 10 31
e 10 32
e 10 49
e 10 59
e 11 16
e 11 45
e 11 63
e 12 14
e 12 28
e 12 34
e 12 36
e 12 48
e 12 50
e 12 51
e 12 52
e 12 64
e 12 67
e 13 24
e 13 25
e 13 38
e 13 40
e 13 51
e 13 55
e 13 57
e 13 65
e 13 66
e 14 28
e 14 34
e 14 48
e 14 51
e 14 52
e 14 64
e 14 67
e 15 19
e 15 29
e 15 35
e 15 39
e 15 41
e 15 43
e 15 45
e 16 36
e 16 44
e 16 47
e 16 54
e 16 70
e 17 33
e 17 40
e 17 55
e 17 66
e 18 32
e 18 49
e 18 59
e 19 29
e 19 35
e 19 39
e 19 41
e 19 43
e 19 45
e 20 21
e 20 26
e 20 30
e 20 31
e 20 58
e 20 60
e 20 61
e 20 69
e 21 30
e 21 31
e 21 32
e 21 58
e 21 60
e 21 69
e 22 44
e 22 47
e 22 52
e 22 53
e 22 56
e 22 64
e 23 27
e 23 46
e 23 53
e 23 68
e 24 25
e 24 37
e 24 38
e 24 55
e 24 57
e 24 65
e 24 66
e 25 37
e 25 38
e 25 57
e 25 65
e 26 30
e 26 58
e 26 60
e 26 61
e 26 69
e 27 46
e 27 53
e 27 68
e 28 34
e 28 48
e 28 50
e 28 51
e 28 64
e 28 66
e 28 67
e 29 35
e 29 39
e 29 45
e 29 62
e 30 58
e 30 60
e 30 61
e 30 69
e 31 32
e 31 58
e 31 60
e 32 37
e 33 40
e 33 55
e 34 42
e 34 48
e 34 50
e 34 51
e 34 64
e 34 66
e 34 67
e 35 39
e 35 45
e 35 49
e 35 59
e 35 62
e 36 44
e 36 47
e 36 50
e 36 52
e 36 54
e 36 70
e 37 38
e 37 42
e 37 57
e 37 65
e 38 57
e 38 65
e 39 45
e 40 55
e 40 66
e 41 43
e 42 50
e 42 51
e 44 47
e 44 52
e 44 54
e 44 56
e 44 64
e 44 70
e 46 47
e 46 53
e 46 56
e 46 68
e 47 52
e 47 53
e 47 54
e 47 56
e 47 64
e 48 51
e 48 64
e 48 67
e 49 59
e 49 61
e 49 62
e 50 51
e 50 54
e 51 55
e 51 65
e 51 66
e 52 53
e 52 54
e 52 56
e 52 64
e 53 56
e 53 64
e 53 68
e 54 56
e 54 64
e 54 70
e 55 65
e 55 66
e 56 68
e 57 65
e 58 60
e 58 69
e 59 62
e 60 69
e 61 62
e 64 67
e 65 66
